data;

set A := 182 984 820 864 366 364 164 576 978 594 104 618 348 206 88 132 136 706 156 684 988 296 968 410 150 974 148 758 74 112 830 716 936 246 106 56 738 274 624 444 120 130 526 634 176 812 434 456 540 318 938 640 778 250 686 956 504 928 160 714 904 216 128 384 790 340 214 152 116 370 460 414 174 170 42 192;
param T := 19000;

end;
